-1 96 32 60 4 66 22 96 48 57 
96 -1 54 14 74 67 27 34 23 39 
32 54 -1 59 4 10 97 99 66 58 
60 14 59 -1 20 99 3 76 41 9 
4 74 4 20 -1 33 43 48 11 11 
66 67 10 99 33 -1 63 42 1 17 
22 27 97 3 43 63 -1 67 57 74 
96 34 99 76 48 42 67 -1 55 88 
48 23 66 41 11 1 57 55 -1 44 
57 39 58 9 11 17 74 88 44 -1 
